/* Objective function */
min: - 0.0054fpdi - 0.0054fpdo + 0.05apdi + 0.05apdo + 0.0002pi + 0.0002po - 0.5fsi - 0.5fso;

apdi = 0.0 hi + -0.0 li + 11.88421 ri + -0.00372 ci + -1.79785 si + 0.0 ti + 0.12087 fTempIi + 0.00339 ami + -146.68047;
asi = 0.0 hi + 0.0 li + -0.0 ri + 0.0 ci + 0.0 si + 0.0 ti + -0.0 fTempIi + 3e-05 ami + 0.00571;
aTempOi = 0.0 hi + -0.0 li + 0.28943 ri + -0.02592 ci + -0.0507 si + -0.0 ti + 0.7864 fTempIi + -0.00011 ami + 7.07441;
fpdi = 0.0 hi + 0.0 li + 10.04094 ri + -5.95272 ci + -0.02199 si + 0.0 ti + -0.54483 fTempIi + 4e-05 ami + 276.53264;
fsi = 0.0 hi + 0.0 li + -8e-05 ri + -0.02364 ci + 1e-05 si + 0.0 ti + 0.00022 fTempIi + -0.0 ami + 2.10253;
fTempOi = 0.0 hi + -0.0 li + -0.28739 ri + 0.02598 ci + 0.05034 si + -0.0 ti + 0.22888 fTempIi + -9e-05 ami + 9.59841;
pi = 0.0 hi + -0.0 li + 673.24667 ri + 3.31297 ci + -72.69257 si + 0.0 ti + 0.0 fTempIi + 0.0 ami + 2696.79148;

apdo = 0.0 ho + -0.0 lo + 10.05417 ro + 0.00299 co + -1.4345 so + -0.0 to + 0.10151 fTempIo + 0.00302 amo + -115.28494;
aso = 0.0 ho + 0.0 lo + -0.0 ro + 0.0 co + 0.0 so + 0.0 to + 0.0 fTempIo + 3e-05 amo + 0.00571;
aTempOo = 0.0 ho + -0.0 lo + -0.33249 ro + 0.02763 co + 0.04428 so + 0.0 to + 0.728 fTempIo + 0.00011 amo + 0.15101;
fpdo = 0.0 ho + -0.0 lo + 9.78506 ro + -5.92253 co + 0.01878 so + -0.0 to + -0.56329 fTempIo + -5e-05 amo + 274.87213;
fso = 0.0 ho + -0.0 lo + 7e-05 ro + -0.02364 co + -1e-05 so + 0.0 to + 0.00022 fTempIo + 0.0 amo + 2.10191;
fTempOo = 0.0 ho + -0.0 lo + 0.32774 ro + -0.02727 co + -0.04367 so + 0.0 to + 0.2761 fTempIo + 0.0001 amo + 12.35159;
po = 0.0 ho + -0.0 lo + 780.4625 ro + 3.32014 co + -81.3612 so + 0.0 to + 0.0 fTempIo + 0.0 amo + 4055.86898;

/* Variable bounds */
aTempOi > 18.6;
1 =r6i + r8i + r10i + r12i + r14i;
ri =6r6i + 8r8i + 10r10i + 12r12i + 14r14i;
1 =s25i + s30i + s40i;
si =25s25i + 30s30i + 40s40i;
ti = 1;
apdi > 100;
apdi < 300;
asi > 0;
asi < 3;
aTempOi > 5;
aTempOi < 25;
fpdi > 100;
fpdi < 300;
fsi > 0;
fsi < 1.25;
fTempOi > 5;
fTempOi < 25;
pi > 0;
ri > 6;
ri < 14;
ci > 38;
ci < 60;
si > 25;
si < 60;
ti > 1;
ti < 3;
fTempIi > 5;
fTempIi < 25;

/* aTempOo < 11.4; */
1 =r6o + r8o + r10o + r12o + r14o;
ro =6r6o + 8r8o + 10r10o + 12r12o + 14r14o;
1 =s30o + s40o + s50o + s60o;
so =30s30o + 40s40o + 50s50o + 60s60o;
to = 3;
apdo > 100;
apdo < 300;
aso > 0;
aso < 3;
aTempOo > 5;
aTempOo < 25;
fpdo > 100;
fpdo < 300;
fso > 0;
fso < 1.25;
fTempOo > 5;
fTempOo < 25;
po > 0;
ro > 6;
ro < 14;
co > 38;
co < 60;
so > 25;
so < 60;
to > 1;
to < 3;
fTempIo > 5;
fTempIo < 25;
int hi,li,si,ti,ci,ri,ami;
int ho,lo,so,to,co,ro,amo;
bin s25i,s30i,s40i,s50i,s60i,r6i,r8i,r10i,r12i,r14i;
bin s25o,s30o,s40o,s50o,s60o,r6o,r8o,r10o,r12o,r14o;
